TestingData/a.tsp
NAME: mona-lisa100K
COMMENT: TSP art (Bosch)
TYPE: TSP
DIMENSION: 100000
EDGE_WEIGHT_TYPE: EUC_2D
NODE_COORD_SECTION
1 0 4
2 2 4
3 0 3
4 2 3
5 4 3
6 0 2
7 1 2
8 2 2
9 3 2
10 4 2
11 2 1
12 4 1
13 2 0
EOF