TestingData/SmallerTest/A.opt.tour
NAME : ./TSPLIB/a280.tsp.optbc.tour
TYPE : TOUR
DIMENSION : 0
TOUR_SECTION
-1
